200
1000
698
696
691
691
688
678
677
677
675
674
673
662
659
655
650
635
629
629
629
626
625
625
624
624
623
623
622
618
617
616
603
602
602
602
592
588
587
587
574
569
560
547
547
544
541
531
530
529
528
527
527
525
520
514
511
510
505
505
499
495
491
487
487
481
477
476
470
467
467
466
460
459
458
458
455
455
454
452
446
445
444
442
436
432
424
424
422
420
415
415
414
406
405
392
390
390
387
385
383
380
378
371
370
369
368
365
365
362
361
358
352
344
343
335
334
333
333
332
331
327
325
324
323
318
314
311
310
309
306
305
302
301
299
298
295
293
286
283
270
269
267
265
264
263
256
254
253
246
246
246
238
236
229
220
219
216
214
213
210
209
207
206
202
200
200
195
189
189
175
173
168
165
164
164
163
163
162
160
159
154
151
148
147
147
144
141
140
140
139
134
133
125
122
122
120
118
117
116
105
103
